673
606
556
663
633
634
517
587
819
906
1019
864
871
933
841
1040
865
443
584
452
466
453
2166
1990
1874
1877
1930
1336
1357
1371
1509
1248
4119
3334
3669
3851
3849
2194
2584
2643
2425
2538
3614
3529
3223
3324
3757
3101
2574
2891
3282
2775
30433
28836
31064
28330
29026
17955
19283
20746
20046
19448
